32	0

0	2	2	3
4	2	4	5
4	2	4	5
3	2	6	7
5	1	7
8	2	8	9
6	2	8	9
2	2	10	11
6	1	11
9	2	12	14
3	2	12	14
5	2	13	15
5	2	16	19
10	2	16	19
1	2	16	19
1	1	17
2	1	18
5	1	20
8	1	20
1	2	21	22
5	1	23
10	1	23
2	2	24	25
8	1	27
3	1	26
5	1	27
3	1	28
3	2	29	30
5	1	31
4	1	31
9	1	32
0	0
